2299.18 0
0 193 194 192 160 68 22 64 157 152 175 180 7 0
0 63 182 23 62 185 137 184 191 186 101 120 0
0 198 171 167 128 177 134 164 165 31 135 16 188 0
0 176 35 50 75 161 97 187 32 147 73 145 92 148 0
0 24 181 169 52 133 127 139 138 155 174 173 142 91 141 136 0
0 54 95 130 39 57 9 3 195 53 199 1 66 86 0
0 112 111 108 109 110 118 107 117 159 104 115 113 114 0
0 172 121 140 166 103 88 124 79 99 100 72 18 49 183 93 156 0
0 87 13 78 178 132 84 170 119 77 10 162 25 146 0
0 179 70 69 150 71 129 189 168 151 55 74 144 67 0
0 28 94 82 60 17 12 80 131 163 56 106 76 0
0 43 42 116 44 40 51 46 45 154 47 48 0
0 196 197 190 41 90 89 143 158 105 126 149 38 96 0
0 6 125 98 29 37 20 122 36 21 33 0
0 34 65 8 102 11 85 14 19 15 59 30 81 0
0 26 4 58 27 123 83 153 5 2 61 0